NAME: I344-n35-k3
COMMENT : (Fake et al, No of trucks: 3, Optimal value: )
TYPE : CVRP
DIMENSION : 35
EDGE_WEIGHT_TYPE : EUC_2D
CAPACITY : 13
NODE_COORD_SECTION
1 23 836
2 249 419
3 618 143
4 426 740
5 283 321
6 628 829
7 174 919
8 252 272
9 415 92
10 351 487
11 29 985
12 77 217
13 284 645
14 579 643
15 44 216
16 168 214
17 971 778
18 101 172
19 434 472
20 646 21
21 692 427
22 264 922
23 668 599
24 333 451
25 225 729
26 616 983
27 76 108
28 913 262
29 539 82
30 14 918
31 504 650
32 97 401
33 134 346
34 532 577
35 871 732
DEMAND_SECTION
1 0
2 1
3 1
4 1
5 1
6 1
7 1
8 1
9 1
10 1
11 1
12 1
13 1
14 1
15 1
16 1
17 1
18 1
19 1
20 1
21 1
22 1
23 1
24 1
25 1
26 1
27 1
28 1
29 1
30 1
31 1
32 1
33 1
34 1
35 1
DEPOT_SECTION
 1
 -1
 EOF 